c description: There is a graph of 5 vertices with a 4-clique and a 4-coloring
c generator: CNFgen (0.9.0)
c copyright: (C) 2012-2020 Massimo Lauria <massimo.lauria@uniroma1.it>
c url: https://massimolauria.net/cnfgen
c
p cnf 50 269
-11 -12 0
-11 -13 0
-11 -14 0
-11 -15 0
-12 -13 0
-12 -14 0
-12 -15 0
-13 -14 0
-13 -15 0
-14 -15 0
11 12 13 14 15 0
-16 -17 0
-16 -18 0
-16 -19 0
-16 -20 0
-17 -18 0
-17 -19 0
-17 -20 0
-18 -19 0
-18 -20 0
-19 -20 0
16 17 18 19 20 0
-21 -22 0
-21 -23 0
-21 -24 0
-21 -25 0
-22 -23 0
-22 -24 0
-22 -25 0
-23 -24 0
-23 -25 0
-24 -25 0
21 22 23 24 25 0
-26 -27 0
-26 -28 0
-26 -29 0
-26 -30 0
-27 -28 0
-27 -29 0
-27 -30 0
-28 -29 0
-28 -30 0
-29 -30 0
26 27 28 29 30 0
-11 -16 0
-11 -21 0
-11 -26 0
-16 -21 0
-16 -26 0
-21 -26 0
-12 -17 0
-12 -22 0
-12 -27 0
-17 -22 0
-17 -27 0
-22 -27 0
-13 -18 0
-13 -23 0
-13 -28 0
-18 -23 0
-18 -28 0
-23 -28 0
-14 -19 0
-14 -24 0
-14 -29 0
-19 -24 0
-19 -29 0
-24 -29 0
-15 -20 0
-15 -25 0
-15 -30 0
-20 -25 0
-20 -30 0
-25 -30 0
1 -11 -17 0
1 -11 -22 0
1 -11 -27 0
1 -16 -12 0
1 -16 -22 0
1 -16 -27 0
1 -21 -12 0
1 -21 -17 0
1 -21 -27 0
1 -26 -12 0
1 -26 -17 0
1 -26 -22 0
2 -11 -18 0
2 -11 -23 0
2 -11 -28 0
2 -16 -13 0
2 -16 -23 0
2 -16 -28 0
2 -21 -13 0
2 -21 -18 0
2 -21 -28 0
2 -26 -13 0
2 -26 -18 0
2 -26 -23 0
3 -11 -19 0
3 -11 -24 0
3 -11 -29 0
3 -16 -14 0
3 -16 -24 0
3 -16 -29 0
3 -21 -14 0
3 -21 -19 0
3 -21 -29 0
3 -26 -14 0
3 -26 -19 0
3 -26 -24 0
4 -11 -20 0
4 -11 -25 0
4 -11 -30 0
4 -16 -15 0
4 -16 -25 0
4 -16 -30 0
4 -21 -15 0
4 -21 -20 0
4 -21 -30 0
4 -26 -15 0
4 -26 -20 0
4 -26 -25 0
5 -12 -18 0
5 -12 -23 0
5 -12 -28 0
5 -17 -13 0
5 -17 -23 0
5 -17 -28 0
5 -22 -13 0
5 -22 -18 0
5 -22 -28 0
5 -27 -13 0
5 -27 -18 0
5 -27 -23 0
6 -12 -19 0
6 -12 -24 0
6 -12 -29 0
6 -17 -14 0
6 -17 -24 0
6 -17 -29 0
6 -22 -14 0
6 -22 -19 0
6 -22 -29 0
6 -27 -14 0
6 -27 -19 0
6 -27 -24 0
7 -12 -20 0
7 -12 -25 0
7 -12 -30 0
7 -17 -15 0
7 -17 -25 0
7 -17 -30 0
7 -22 -15 0
7 -22 -20 0
7 -22 -30 0
7 -27 -15 0
7 -27 -20 0
7 -27 -25 0
8 -13 -19 0
8 -13 -24 0
8 -13 -29 0
8 -18 -14 0
8 -18 -24 0
8 -18 -29 0
8 -23 -14 0
8 -23 -19 0
8 -23 -29 0
8 -28 -14 0
8 -28 -19 0
8 -28 -24 0
9 -13 -20 0
9 -13 -25 0
9 -13 -30 0
9 -18 -15 0
9 -18 -25 0
9 -18 -30 0
9 -23 -15 0
9 -23 -20 0
9 -23 -30 0
9 -28 -15 0
9 -28 -20 0
9 -28 -25 0
10 -14 -20 0
10 -14 -25 0
10 -14 -30 0
10 -19 -15 0
10 -19 -25 0
10 -19 -30 0
10 -24 -15 0
10 -24 -20 0
10 -24 -30 0
10 -29 -15 0
10 -29 -20 0
10 -29 -25 0
-31 -32 0
-31 -33 0
-31 -34 0
-32 -33 0
-32 -34 0
-33 -34 0
31 32 33 34 0
-35 -36 0
-35 -37 0
-35 -38 0
-36 -37 0
-36 -38 0
-37 -38 0
35 36 37 38 0
-39 -40 0
-39 -41 0
-39 -42 0
-40 -41 0
-40 -42 0
-41 -42 0
39 40 41 42 0
-43 -44 0
-43 -45 0
-43 -46 0
-44 -45 0
-44 -46 0
-45 -46 0
43 44 45 46 0
-47 -48 0
-47 -49 0
-47 -50 0
-48 -49 0
-48 -50 0
-49 -50 0
47 48 49 50 0
-1 -31 -35 0
-1 -32 -36 0
-1 -33 -37 0
-1 -34 -38 0
-2 -31 -39 0
-2 -32 -40 0
-2 -33 -41 0
-2 -34 -42 0
-3 -31 -43 0
-3 -32 -44 0
-3 -33 -45 0
-3 -34 -46 0
-4 -31 -47 0
-4 -32 -48 0
-4 -33 -49 0
-4 -34 -50 0
-5 -35 -39 0
-5 -36 -40 0
-5 -37 -41 0
-5 -38 -42 0
-6 -35 -43 0
-6 -36 -44 0
-6 -37 -45 0
-6 -38 -46 0
-7 -35 -47 0
-7 -36 -48 0
-7 -37 -49 0
-7 -38 -50 0
-8 -39 -43 0
-8 -40 -44 0
-8 -41 -45 0
-8 -42 -46 0
-9 -39 -47 0
-9 -40 -48 0
-9 -41 -49 0
-9 -42 -50 0
-10 -43 -47 0
-10 -44 -48 0
-10 -45 -49 0
-10 -46 -50 0